100
30
31
6
6
10
27
11
30
8
13
31
25
9
31
10
15
8
12
10
31
4
14
9
14
6
4
13
16
32
1
4
3
17
6
10
7
29
5
5
15
27
13
31
2
5
31
31
4
20
17
15
6
9
8
14
11
4
5
5
15
18
4
6
11
6
14
16
31
15
32
18
31
23
14
21
3
1
2
8
31
6
4
4
16
7
5
5
14
17
31
19
2
27
13
13
13
16
20
6
8
4